tsp_instances/TSP20/instance37.tsp
NODE_COORD_SECTION
0 198 124
1 26 66
2 102 197
3 99 189
4 28 90
5 57 63
6 108 15
7 132 177
8 10 186
9 71 130
10 169 130
11 23 112
12 139 176
13 132 186
14 123 67
15 165 151
16 25 173
17 95 78
18 188 115
19 19 116
