tsp_instances/TSP20/instance37.opt.tour
TOUR_SECTION
1
11
16
13
8
14
3
4
10
17
9
20
12
5
2
6
18
7
15
19
-1